output_file = "12-1-C-80-1.80-124.csv";

n_days = 80;
n_shelf_types = 2;
n_crops = 1;

num_shelves = [
    8, 4
];


crop_shelf_type_compatible = [
    [1, 1]
];

crop_growth_days = [15];

n_configurations = 2;

crop_growth_day_config = [
    [1, 1, 1, 2, 2, 2, 2, 2, 2, 2, 2, 2, 2, 2, 2]
];

capacity = [
    [12, 12],
[12, 12]
];

demand = [
    [0, 0, 0, 0, 0, 0, 0, 0, 0, 0, 0, 0, 0, 0, 0, 48, 34, 70, 46, 0, 0, 0, 0, 0, 0, 0, 0, 0, 45, 0, 45, 0, 0, 0, 27, 0, 25, 0, 41, 0, 46, 12, 43, 0, 0, 73, 99, 0, 0, 0, 0, 0, 0, 0, 50, 0, 0, 0, 0, 0, 84, 52, 0, 0, 21, 0, 88, 0, 0, 19, 0, 41, 0, 0, 0, 50, 25, 36, 0, 27]
];


missed_demand_penalty = [
    [0, 0, 0, 0, 0, 0, 0, 0, 0, 0, 0, 0, 0, 0, 0, 1, 1, 1, 1, 0, 0, 0, 0, 0, 0, 0, 0, 0, 1, 0, 1, 0, 0, 0, 1, 0, 1, 0, 1, 0, 1, 1, 1, 0, 0, 1, 1, 0, 0, 0, 0, 0, 0, 0, 1, 0, 0, 0, 0, 0, 1, 1, 0, 0, 1, 0, 1, 0, 0, 1, 0, 1, 0, 0, 0, 1, 1, 1, 0, 1]
];